\ This file has been generated by DOcplex
\ ENCODING=ISO-8859-1
\Problem name: Assignment

Minimize
 obj: x_0 + x_1 + x_2 + x_3 + x_4 + x_5 + x_6
Subject To
 c1: x_0 + x_1 + x_2 + x_6 >= 1
 c2: x_1 + x_3 >= 1
 c3: x_2 + x_4 >= 1
 c4: x_3 + x_4 + x_5 >= 1
 c5: x_0 + x_1 + x_2 + x_3 + x_5 + x_6 >= 1
 c6: x_4 + x_5 + x_6 >= 1
 c7: x_0 + x_1 + x_4 + x_6 >= 1

Bounds

Generals
 x_0 x_1 x_2 x_3 x_4 x_5 x_6
End
